39
75
59	4
57	2
56	2
52	2
51	5
50	1
49	3
48	2
47	2
46	3
45	1
44	3
43	3
42	2
41	2
40	4
39	3
38	2
37	3
36	5
35	1
34	2
33	2
32	3
31	4
29	1
28	3
27	1
26	3
25	1
24	1
23	2
22	4
21	2
19	1
18	2
17	4
16	5
15	4
